instancias/entrada06.lp
Maximize 
 38x1 + 100x2 + 77x3 + 10x4 + 89x5 + 45x6 + 34x7
Subject To
 13x1 + 49x2 + 67x3 + 32x4 + 77x5 + 41x6 + 51x7 <= 99
Bounds
 0 <= x1 <= 1
 0 <= x2 <= 1
 0 <= x3 <= 1
 0 <= x4 <= 1
 0 <= x5 <= 1
 0 <= x6 <= 1
 0 <= x7 <= 1
General
 x1 x2 x3 x4 x5 x6 x7
End