instancias/entrada06.txt
7
99
38 100 77 10 89 45 34
13 49 67 32 77 41 51